p tdp 117 116
69 89
74 94
17 70
52 74
58 6
60 47
56 54
91 78
91 6
113 28
110 82
27 88
45 94
29 16
63 14
46 21
73 109
90 19
53 117
68 72
31 7
48 81
50 81
24 2
88 19
49 26
104 85
62 32
103 59
23 94
56 24
108 101
95 7
34 3
11 9
103 53
46 111
116 1
114 55
8 76
75 100
107 34
9 35
12 112
98 99
32 92
96 21
79 67
5 75
71 82
2 117
33 65
89 33
111 37
39 22
101 40
30 91
84 98
22 66
57 7
61 7
77 10
64 68
12 105
114 38
29 86
20 18
8 83
49 46
102 60
73 44
16 25
17 32
22 107
47 33
83 4
72 42
93 50
46 83
115 78
28 108
87 52
44 94
105 17
106 85
59 106
100 51
98 63
100 109
97 28
43 48
116 18
67 80
55 79
36 106
69 115
41 17
34 81
10 96
3 72
5 13
60 110
57 86
16 15
99 60
23 43
12 18
76 7
88 8
114 40
96 75
59 32
30 79
41 23
9 99
101 22
